100 4950
1 2 2
1 3 4
1 4 1
1 5 2
1 6 1
1 7 5
1 8 5
1 9 3
1 10 5
1 11 3
1 12 1
1 13 1
1 14 5
1 15 5
1 16 2
1 17 3
1 18 1
1 19 5
1 20 3
1 21 3
1 22 3
1 23 5
1 24 4
1 25 5
1 26 2
1 27 3
1 28 1
1 29 2
1 30 5
1 31 5
1 32 4
1 33 1
1 34 3
1 35 5
1 36 2
1 37 1
1 38 3
1 39 5
1 40 4
1 41 4
1 42 5
1 43 5
1 44 5
1 45 4
1 46 1
1 47 3
1 48 2
1 49 5
1 50 1
1 51 2
1 52 1
1 53 5
1 54 4
1 55 4
1 56 2
1 57 1
1 58 3
1 59 1
1 60 5
1 61 4
1 62 1
1 63 5
1 64 5
1 65 3
1 66 4
1 67 2
1 68 5
1 69 5
1 70 5
1 71 2
1 72 2
1 73 1
1 74 1
1 75 3
1 76 1
1 77 4
1 78 1
1 79 3
1 80 3
1 81 4
1 82 4
1 83 2
1 84 1
1 85 5
1 86 2
1 87 4
1 88 1
1 89 3
1 90 4
1 91 2
1 92 3
1 93 3
1 94 4
1 95 3
1 96 4
1 97 3
1 98 5
1 99 1
1 100 1
2 3 1
2 4 5
2 5 3
2 6 2
2 7 2
2 8 5
2 9 1
2 10 3
2 11 1
2 12 5
2 13 2
2 14 5
2 15 4
2 16 3
2 17 2
2 18 3
2 19 1
2 20 5
2 21 5
2 22 4
2 23 4
2 24 1
2 25 2
2 26 2
2 27 3
2 28 5
2 29 1
2 30 1
2 31 5
2 32 1
2 33 1
2 34 4
2 35 5
2 36 5
2 37 4
2 38 1
2 39 5
2 40 1
2 41 1
2 42 4
2 43 3
2 44 1
2 45 4
2 46 5
2 47 4
2 48 4
2 49 2
2 50 4
2 51 1
2 52 4
2 53 2
2 54 4
2 55 2
2 56 1
2 57 5
2 58 1
2 59 5
2 60 4
2 61 4
2 62 5
2 63 2
2 64 1
2 65 4
2 66 5
2 67 2
2 68 2
2 69 1
2 70 3
2 71 3
2 72 1
2 73 4
2 74 1
2 75 2
2 76 2
2 77 4
2 78 3
2 79 4
2 80 5
2 81 4
2 82 4
2 83 4
2 84 2
2 85 1
2 86 3
2 87 3
2 88 4
2 89 4
2 90 4
2 91 1
2 92 2
2 93 5
2 94 4
2 95 5
2 96 2
2 97 2
2 98 4
2 99 3
2 100 4
3 4 1
3 5 5
3 6 5
3 7 1
3 8 5
3 9 2
3 10 3
3 11 5
3 12 2
3 13 5
3 14 4
3 15 4
3 16 2
3 17 3
3 18 1
3 19 1
3 20 1
3 21 2
3 22 1
3 23 3
3 24 4
3 25 4
3 26 5
3 27 3
3 28 4
3 29 2
3 30 2
3 31 1
3 32 1
3 33 3
3 34 5
3 35 3
3 36 2
3 37 4
3 38 1
3 39 3
3 40 5
3 41 1
3 42 4
3 43 2
3 44 5
3 45 2
3 46 1
3 47 3
3 48 2
3 49 2
3 50 5
3 51 2
3 52 5
3 53 1
3 54 1
3 55 5
3 56 1
3 57 3
3 58 3
3 59 2
3 60 3
3 61 5
3 62 1
3 63 2
3 64 2
3 65 1
3 66 4
3 67 3
3 68 3
3 69 4
3 70 1
3 71 4
3 72 2
3 73 4
3 74 3
3 75 4
3 76 2
3 77 2
3 78 2
3 79 2
3 80 3
3 81 3
3 82 1
3 83 4
3 84 3
3 85 2
3 86 3
3 87 4
3 88 1
3 89 1
3 90 1
3 91 4
3 92 3
3 93 2
3 94 1
3 95 5
3 96 5
3 97 5
3 98 5
3 99 5
3 100 1
4 5 3
4 6 3
4 7 2
4 8 4
4 9 3
4 10 5
4 11 4
4 12 3
4 13 3
4 14 1
4 15 1
4 16 1
4 17 3
4 18 4
4 19 4
4 20 5
4 21 1
4 22 4
4 23 1
4 24 3
4 25 5
4 26 1
4 27 2
4 28 3
4 29 2
4 30 4
4 31 5
4 32 1
4 33 4
4 34 2
4 35 1
4 36 2
4 37 3
4 38 2
4 39 2
4 40 4
4 41 1
4 42 2
4 43 4
4 44 4
4 45 4
4 46 4
4 47 3
4 48 1
4 49 1
4 50 5
4 51 3
4 52 5
4 53 3
4 54 4
4 55 5
4 56 4
4 57 2
4 58 1
4 59 2
4 60 4
4 61 3
4 62 1
4 63 2
4 64 1
4 65 4
4 66 4
4 67 5
4 68 2
4 69 3
4 70 1
4 71 5
4 72 1
4 73 4
4 74 4
4 75 4
4 76 1
4 77 2
4 78 1
4 79 4
4 80 5
4 81 2
4 82 5
4 83 1
4 84 3
4 85 1
4 86 3
4 87 2
4 88 4
4 89 2
4 90 5
4 91 4
4 92 3
4 93 2
4 94 4
4 95 5
4 96 4
4 97 2
4 98 1
4 99 5
4 100 3
5 6 1
5 7 1
5 8 3
5 9 2
5 10 3
5 11 5
5 12 1
5 13 2
5 14 1
5 15 3
5 16 3
5 17 3
5 18 3
5 19 4
5 20 3
5 21 3
5 22 5
5 23 4
5 24 2
5 25 1
5 26 3
5 27 2
5 28 5
5 29 5
5 30 4
5 31 3
5 32 5
5 33 4
5 34 4
5 35 2
5 36 2
5 37 4
5 38 5
5 39 4
5 40 3
5 41 4
5 42 5
5 43 2
5 44 5
5 45 4
5 46 5
5 47 3
5 48 3
5 49 3
5 50 2
5 51 1
5 52 2
5 53 1
5 54 1
5 55 3
5 56 4
5 57 1
5 58 5
5 59 1
5 60 4
5 61 2
5 62 1
5 63 5
5 64 5
5 65 3
5 66 1
5 67 5
5 68 4
5 69 5
5 70 4
5 71 3
5 72 3
5 73 1
5 74 1
5 75 5
5 76 2
5 77 2
5 78 1
5 79 2
5 80 3
5 81 1
5 82 3
5 83 1
5 84 5
5 85 2
5 86 1
5 87 1
5 88 1
5 89 3
5 90 1
5 91 5
5 92 1
5 93 4
5 94 5
5 95 3
5 96 1
5 97 3
5 98 3
5 99 5
5 100 2
6 7 1
6 8 3
6 9 2
6 10 1
6 11 5
6 12 2
6 13 4
6 14 1
6 15 5
6 16 5
6 17 1
6 18 4
6 19 3
6 20 4
6 21 2
6 22 1
6 23 1
6 24 4
6 25 1
6 26 3
6 27 2
6 28 5
6 29 2
6 30 1
6 31 2
6 32 4
6 33 2
6 34 4
6 35 4
6 36 5
6 37 5
6 38 5
6 39 3
6 40 1
6 41 3
6 42 2
6 43 5
6 44 2
6 45 5
6 46 5
6 47 1
6 48 1
6 49 3
6 50 1
6 51 2
6 52 1
6 53 2
6 54 3
6 55 1
6 56 5
6 57 5
6 58 4
6 59 4
6 60 5
6 61 3
6 62 3
6 63 2
6 64 5
6 65 1
6 66 1
6 67 1
6 68 4
6 69 5
6 70 3
6 71 3
6 72 5
6 73 4
6 74 3
6 75 2
6 76 1
6 77 4
6 78 5
6 79 4
6 80 1
6 81 1
6 82 4
6 83 1
6 84 4
6 85 1
6 86 3
6 87 4
6 88 4
6 89 3
6 90 5
6 91 2
6 92 2
6 93 5
6 94 3
6 95 4
6 96 3
6 97 4
6 98 2
6 99 2
6 100 2
7 8 5
7 9 1
7 10 4
7 11 1
7 12 1
7 13 3
7 14 4
7 15 2
7 16 1
7 17 2
7 18 5
7 19 5
7 20 3
7 21 1
7 22 4
7 23 2
7 24 4
7 25 4
7 26 5
7 27 2
7 28 2
7 29 1
7 30 3
7 31 1
7 32 1
7 33 4
7 34 1
7 35 3
7 36 4
7 37 4
7 38 1
7 39 3
7 40 3
7 41 5
7 42 2
7 43 4
7 44 3
7 45 2
7 46 2
7 47 5
7 48 4
7 49 2
7 50 5
7 51 3
7 52 5
7 53 4
7 54 1
7 55 2
7 56 3
7 57 4
7 58 1
7 59 1
7 60 2
7 61 4
7 62 1
7 63 3
7 64 2
7 65 1
7 66 3
7 67 4
7 68 1
7 69 3
7 70 2
7 71 2
7 72 4
7 73 3
7 74 2
7 75 3
7 76 2
7 77 3
7 78 3
7 79 4
7 80 3
7 81 3
7 82 4
7 83 5
7 84 1
7 85 3
7 86 4
7 87 5
7 88 5
7 89 1
7 90 3
7 91 1
7 92 1
7 93 5
7 94 1
7 95 2
7 96 2
7 97 3
7 98 1
7 99 4
7 100 1
8 9 3
8 10 5
8 11 3
8 12 3
8 13 5
8 14 5
8 15 2
8 16 2
8 17 4
8 18 3
8 19 1
8 20 2
8 21 1
8 22 4
8 23 5
8 24 1
8 25 1
8 26 5
8 27 5
8 28 5
8 29 1
8 30 1
8 31 3
8 32 2
8 33 2
8 34 3
8 35 2
8 36 2
8 37 1
8 38 4
8 39 1
8 40 5
8 41 1
8 42 2
8 43 2
8 44 3
8 45 4
8 46 4
8 47 5
8 48 3
8 49 4
8 50 5
8 51 2
8 52 1
8 53 3
8 54 1
8 55 1
8 56 1
8 57 2
8 58 3
8 59 3
8 60 1
8 61 1
8 62 1
8 63 5
8 64 3
8 65 5
8 66 5
8 67 1
8 68 2
8 69 3
8 70 5
8 71 1
8 72 2
8 73 1
8 74 5
8 75 2
8 76 2
8 77 1
8 78 3
8 79 5
8 80 2
8 81 2
8 82 4
8 83 5
8 84 2
8 85 2
8 86 2
8 87 3
8 88 4
8 89 2
8 90 5
8 91 5
8 92 4
8 93 4
8 94 3
8 95 4
8 96 4
8 97 3
8 98 5
8 99 4
8 100 4
9 10 4
9 11 4
9 12 2
9 13 1
9 14 5
9 15 3
9 16 2
9 17 5
9 18 2
9 19 4
9 20 4
9 21 4
9 22 1
9 23 5
9 24 3
9 25 3
9 26 2
9 27 1
9 28 4
9 29 2
9 30 4
9 31 2
9 32 5
9 33 2
9 34 5
9 35 1
9 36 5
9 37 5
9 38 4
9 39 1
9 40 5
9 41 2
9 42 3
9 43 3
9 44 4
9 45 1
9 46 4
9 47 2
9 48 3
9 49 3
9 50 3
9 51 5
9 52 2
9 53 2
9 54 4
9 55 4
9 56 4
9 57 2
9 58 2
9 59 1
9 60 1
9 61 2
9 62 5
9 63 5
9 64 5
9 65 1
9 66 3
9 67 3
9 68 4
9 69 1
9 70 1
9 71 4
9 72 2
9 73 5
9 74 2
9 75 4
9 76 5
9 77 1
9 78 3
9 79 5
9 80 1
9 81 2
9 82 2
9 83 1
9 84 1
9 85 3
9 86 5
9 87 3
9 88 3
9 89 4
9 90 2
9 91 4
9 92 3
9 93 2
9 94 2
9 95 4
9 96 1
9 97 2
9 98 5
9 99 1
9 100 4
10 11 5
10 12 5
10 13 3
10 14 4
10 15 5
10 16 3
10 17 2
10 18 5
10 19 4
10 20 3
10 21 4
10 22 3
10 23 2
10 24 1
10 25 1
10 26 1
10 27 1
10 28 3
10 29 1
10 30 2
10 31 3
10 32 2
10 33 5
10 34 4
10 35 5
10 36 3
10 37 5
10 38 4
10 39 2
10 40 2
10 41 2
10 42 1
10 43 1
10 44 3
10 45 1
10 46 5
10 47 2
10 48 5
10 49 1
10 50 1
10 51 4
10 52 3
10 53 5
10 54 4
10 55 2
10 56 3
10 57 3
10 58 5
10 59 3
10 60 3
10 61 4
10 62 4
10 63 1
10 64 1
10 65 4
10 66 4
10 67 3
10 68 4
10 69 3
10 70 1
10 71 4
10 72 3
10 73 3
10 74 5
10 75 4
10 76 3
10 77 4
10 78 5
10 79 1
10 80 4
10 81 1
10 82 1
10 83 5
10 84 4
10 85 5
10 86 5
10 87 5
10 88 3
10 89 1
10 90 3
10 91 5
10 92 3
10 93 5
10 94 3
10 95 2
10 96 3
10 97 4
10 98 3
10 99 2
10 100 1
11 12 4
11 13 3
11 14 1
11 15 4
11 16 4
11 17 2
11 18 2
11 19 4
11 20 1
11 21 2
11 22 1
11 23 5
11 24 2
11 25 5
11 26 1
11 27 2
11 28 3
11 29 4
11 30 5
11 31 2
11 32 2
11 33 1
11 34 4
11 35 1
11 36 3
11 37 3
11 38 3
11 39 3
11 40 5
11 41 2
11 42 2
11 43 2
11 44 5
11 45 4
11 46 3
11 47 1
11 48 5
11 49 3
11 50 1
11 51 2
11 52 3
11 53 3
11 54 2
11 55 1
11 56 4
11 57 4
11 58 5
11 59 1
11 60 4
11 61 3
11 62 5
11 63 5
11 64 2
11 65 3
11 66 5
11 67 4
11 68 5
11 69 4
11 70 1
11 71 5
11 72 5
11 73 3
11 74 1
11 75 4
11 76 5
11 77 2
11 78 3
11 79 2
11 80 5
11 81 2
11 82 2
11 83 4
11 84 5
11 85 5
11 86 3
11 87 5
11 88 5
11 89 2
11 90 4
11 91 3
11 92 3
11 93 5
11 94 1
11 95 5
11 96 2
11 97 4
11 98 4
11 99 4
11 100 2
12 13 2
12 14 4
12 15 5
12 16 1
12 17 1
12 18 5
12 19 2
12 20 5
12 21 3
12 22 4
12 23 3
12 24 1
12 25 4
12 26 1
12 27 4
12 28 4
12 29 4
12 30 3
12 31 5
12 32 5
12 33 1
12 34 2
12 35 2
12 36 2
12 37 1
12 38 2
12 39 2
12 40 4
12 41 1
12 42 2
12 43 4
12 44 2
12 45 5
12 46 5
12 47 4
12 48 5
12 49 5
12 50 3
12 51 4
12 52 2
12 53 4
12 54 1
12 55 4
12 56 5
12 57 2
12 58 1
12 59 4
12 60 4
12 61 3
12 62 2
12 63 2
12 64 1
12 65 2
12 66 4
12 67 1
12 68 4
12 69 3
12 70 2
12 71 1
12 72 4
12 73 3
12 74 5
12 75 3
12 76 1
12 77 2
12 78 5
12 79 5
12 80 2
12 81 3
12 82 3
12 83 3
12 84 4
12 85 5
12 86 5
12 87 4
12 88 1
12 89 1
12 90 3
12 91 4
12 92 5
12 93 5
12 94 2
12 95 5
12 96 1
12 97 2
12 98 3
12 99 2
12 100 3
13 14 4
13 15 4
13 16 1
13 17 5
13 18 5
13 19 5
13 20 4
13 21 1
13 22 4
13 23 2
13 24 3
13 25 4
13 26 5
13 27 3
13 28 3
13 29 3
13 30 5
13 31 1
13 32 2
13 33 5
13 34 3
13 35 2
13 36 4
13 37 2
13 38 1
13 39 2
13 40 4
13 41 1
13 42 5
13 43 2
13 44 4
13 45 4
13 46 5
13 47 5
13 48 1
13 49 1
13 50 5
13 51 1
13 52 4
13 53 1
13 54 2
13 55 1
13 56 5
13 57 3
13 58 1
13 59 4
13 60 4
13 61 1
13 62 3
13 63 3
13 64 2
13 65 2
13 66 1
13 67 2
13 68 4
13 69 3
13 70 5
13 71 1
13 72 3
13 73 3
13 74 4
13 75 1
13 76 2
13 77 2
13 78 5
13 79 3
13 80 4
13 81 3
13 82 4
13 83 2
13 84 3
13 85 5
13 86 2
13 87 3
13 88 4
13 89 5
13 90 5
13 91 4
13 92 3
13 93 2
13 94 3
13 95 3
13 96 4
13 97 2
13 98 4
13 99 1
13 100 4
14 15 5
14 16 3
14 17 5
14 18 1
14 19 3
14 20 3
14 21 5
14 22 1
14 23 1
14 24 2
14 25 5
14 26 2
14 27 1
14 28 4
14 29 3
14 30 4
14 31 3
14 32 2
14 33 5
14 34 4
14 35 4
14 36 2
14 37 3
14 38 4
14 39 5
14 40 2
14 41 2
14 42 4
14 43 1
14 44 5
14 45 2
14 46 4
14 47 4
14 48 4
14 49 2
14 50 4
14 51 5
14 52 1
14 53 4
14 54 3
14 55 2
14 56 2
14 57 1
14 58 4
14 59 3
14 60 3
14 61 3
14 62 4
14 63 5
14 64 4
14 65 1
14 66 5
14 67 3
14 68 4
14 69 4
14 70 4
14 71 5
14 72 1
14 73 1
14 74 2
14 75 3
14 76 1
14 77 5
14 78 5
14 79 2
14 80 2
14 81 5
14 82 5
14 83 1
14 84 2
14 85 5
14 86 3
14 87 1
14 88 1
14 89 5
14 90 4
14 91 1
14 92 2
14 93 1
14 94 3
14 95 2
14 96 2
14 97 5
14 98 5
14 99 2
14 100 2
15 16 2
15 17 3
15 18 5
15 19 4
15 20 4
15 21 3
15 22 4
15 23 5
15 24 3
15 25 3
15 26 3
15 27 4
15 28 3
15 29 1
15 30 4
15 31 3
15 32 2
15 33 2
15 34 4
15 35 2
15 36 2
15 37 4
15 38 5
15 39 3
15 40 2
15 41 1
15 42 2
15 43 1
15 44 2
15 45 3
15 46 3
15 47 3
15 48 5
15 49 1
15 50 4
15 51 4
15 52 1
15 53 3
15 54 1
15 55 1
15 56 3
15 57 2
15 58 1
15 59 2
15 60 5
15 61 4
15 62 4
15 63 5
15 64 2
15 65 2
15 66 1
15 67 4
15 68 3
15 69 4
15 70 5
15 71 1
15 72 2
15 73 1
15 74 1
15 75 1
15 76 4
15 77 4
15 78 1
15 79 1
15 80 5
15 81 5
15 82 3
15 83 2
15 84 1
15 85 1
15 86 3
15 87 4
15 88 1
15 89 4
15 90 2
15 91 3
15 92 4
15 93 5
15 94 2
15 95 5
15 96 5
15 97 2
15 98 4
15 99 4
15 100 2
16 17 2
16 18 5
16 19 1
16 20 4
16 21 3
16 22 5
16 23 4
16 24 2
16 25 1
16 26 1
16 27 4
16 28 5
16 29 4
16 30 4
16 31 3
16 32 5
16 33 2
16 34 4
16 35 2
16 36 3
16 37 5
16 38 5
16 39 2
16 40 4
16 41 4
16 42 2
16 43 4
16 44 4
16 45 1
16 46 2
16 47 5
16 48 4
16 49 1
16 50 5
16 51 3
16 52 1
16 53 5
16 54 2
16 55 4
16 56 2
16 57 5
16 58 5
16 59 1
16 60 3
16 61 4
16 62 4
16 63 3
16 64 2
16 65 5
16 66 4
16 67 1
16 68 3
16 69 5
16 70 4
16 71 2
16 72 2
16 73 4
16 74 2
16 75 1
16 76 2
16 77 2
16 78 4
16 79 1
16 80 5
16 81 3
16 82 1
16 83 4
16 84 2
16 85 3
16 86 3
16 87 4
16 88 3
16 89 3
16 90 5
16 91 2
16 92 5
16 93 3
16 94 1
16 95 1
16 96 3
16 97 4
16 98 2
16 99 2
16 100 1
17 18 1
17 19 4
17 20 1
17 21 2
17 22 4
17 23 2
17 24 3
17 25 1
17 26 2
17 27 5
17 28 5
17 29 3
17 30 3
17 31 4
17 32 5
17 33 5
17 34 1
17 35 1
17 36 1
17 37 3
17 38 2
17 39 4
17 40 4
17 41 2
17 42 4
17 43 5
17 44 5
17 45 3
17 46 1
17 47 3
17 48 4
17 49 1
17 50 5
17 51 4
17 52 4
17 53 1
17 54 1
17 55 4
17 56 4
17 57 3
17 58 5
17 59 5
17 60 4
17 61 2
17 62 1
17 63 4
17 64 5
17 65 4
17 66 2
17 67 3
17 68 4
17 69 4
17 70 5
17 71 2
17 72 1
17 73 5
17 74 3
17 75 5
17 76 4
17 77 4
17 78 2
17 79 2
17 80 1
17 81 2
17 82 4
17 83 1
17 84 4
17 85 4
17 86 3
17 87 4
17 88 4
17 89 3
17 90 5
17 91 3
17 92 5
17 93 5
17 94 1
17 95 3
17 96 3
17 97 2
17 98 1
17 99 1
17 100 2
18 19 1
18 20 4
18 21 3
18 22 1
18 23 2
18 24 5
18 25 1
18 26 5
18 27 1
18 28 4
18 29 1
18 30 1
18 31 4
18 32 1
18 33 1
18 34 5
18 35 2
18 36 5
18 37 4
18 38 1
18 39 2
18 40 2
18 41 5
18 42 5
18 43 2
18 44 5
18 45 3
18 46 4
18 47 3
18 48 5
18 49 4
18 50 2
18 51 3
18 52 4
18 53 4
18 54 5
18 55 3
18 56 2
18 57 4
18 58 1
18 59 3
18 60 1
18 61 3
18 62 5
18 63 2
18 64 3
18 65 1
18 66 4
18 67 1
18 68 5
18 69 4
18 70 5
18 71 1
18 72 1
18 73 1
18 74 3
18 75 1
18 76 2
18 77 5
18 78 4
18 79 2
18 80 2
18 81 2
18 82 1
18 83 2
18 84 3
18 85 4
18 86 3
18 87 3
18 88 5
18 89 1
18 90 3
18 91 1
18 92 5
18 93 3
18 94 2
18 95 5
18 96 3
18 97 2
18 98 5
18 99 4
18 100 4
19 20 1
19 21 3
19 22 3
19 23 4
19 24 5
19 25 3
19 26 3
19 27 5
19 28 1
19 29 2
19 30 4
19 31 5
19 32 4
19 33 3
19 34 1
19 35 3
19 36 3
19 37 4
19 38 4
19 39 5
19 40 1
19 41 2
19 42 2
19 43 5
19 44 4
19 45 3
19 46 2
19 47 2
19 48 5
19 49 2
19 50 1
19 51 3
19 52 2
19 53 2
19 54 5
19 55 3
19 56 1
19 57 1
19 58 1
19 59 2
19 60 5
19 61 3
19 62 1
19 63 5
19 64 5
19 65 5
19 66 3
19 67 4
19 68 1
19 69 5
19 70 2
19 71 1
19 72 5
19 73 3
19 74 3
19 75 3
19 76 5
19 77 1
19 78 4
19 79 4
19 80 1
19 81 3
19 82 5
19 83 1
19 84 3
19 85 2
19 86 3
19 87 5
19 88 2
19 89 4
19 90 5
19 91 5
19 92 4
19 93 4
19 94 5
19 95 1
19 96 3
19 97 4
19 98 1
19 99 4
19 100 2
20 21 3
20 22 4
20 23 2
20 24 3
20 25 1
20 26 5
20 27 2
20 28 3
20 29 1
20 30 3
20 31 5
20 32 3
20 33 4
20 34 4
20 35 1
20 36 5
20 37 4
20 38 5
20 39 3
20 40 4
20 41 5
20 42 4
20 43 4
20 44 4
20 45 5
20 46 3
20 47 4
20 48 3
20 49 1
20 50 4
20 51 1
20 52 3
20 53 5
20 54 5
20 55 1
20 56 5
20 57 3
20 58 1
20 59 3
20 60 5
20 61 3
20 62 5
20 63 3
20 64 4
20 65 1
20 66 5
20 67 3
20 68 4
20 69 1
20 70 2
20 71 4
20 72 3
20 73 4
20 74 3
20 75 3
20 76 3
20 77 4
20 78 4
20 79 4
20 80 3
20 81 3
20 82 2
20 83 3
20 84 1
20 85 1
20 86 1
20 87 4
20 88 4
20 89 4
20 90 1
20 91 1
20 92 3
20 93 2
20 94 4
20 95 3
20 96 4
20 97 4
20 98 5
20 99 2
20 100 1
21 22 5
21 23 4
21 24 1
21 25 1
21 26 2
21 27 4
21 28 5
21 29 1
21 30 3
21 31 3
21 32 4
21 33 4
21 34 2
21 35 4
21 36 5
21 37 2
21 38 1
21 39 3
21 40 3
21 41 1
21 42 5
21 43 3
21 44 1
21 45 1
21 46 1
21 47 5
21 48 4
21 49 4
21 50 4
21 51 3
21 52 2
21 53 5
21 54 5
21 55 1
21 56 5
21 57 5
21 58 4
21 59 3
21 60 4
21 61 5
21 62 3
21 63 1
21 64 1
21 65 1
21 66 3
21 67 3
21 68 4
21 69 5
21 70 4
21 71 3
21 72 2
21 73 5
21 74 5
21 75 5
21 76 3
21 77 4
21 78 5
21 79 2
21 80 1
21 81 2
21 82 3
21 83 5
21 84 5
21 85 5
21 86 2
21 87 5
21 88 1
21 89 4
21 90 3
21 91 1
21 92 4
21 93 3
21 94 4
21 95 1
21 96 1
21 97 5
21 98 5
21 99 1
21 100 5
22 23 4
22 24 2
22 25 1
22 26 5
22 27 4
22 28 4
22 29 3
22 30 3
22 31 2
22 32 1
22 33 5
22 34 3
22 35 1
22 36 1
22 37 2
22 38 1
22 39 2
22 40 4
22 41 2
22 42 2
22 43 5
22 44 5
22 45 4
22 46 2
22 47 4
22 48 1
22 49 2
22 50 2
22 51 2
22 52 1
22 53 4
22 54 4
22 55 5
22 56 2
22 57 4
22 58 2
22 59 3
22 60 1
22 61 2
22 62 4
22 63 5
22 64 4
22 65 1
22 66 4
22 67 4
22 68 2
22 69 1
22 70 4
22 71 3
22 72 5
22 73 4
22 74 2
22 75 1
22 76 5
22 77 1
22 78 2
22 79 5
22 80 4
22 81 2
22 82 1
22 83 2
22 84 5
22 85 5
22 86 3
22 87 3
22 88 4
22 89 4
22 90 3
22 91 2
22 92 1
22 93 3
22 94 4
22 95 5
22 96 2
22 97 2
22 98 4
22 99 3
22 100 5
23 24 3
23 25 3
23 26 4
23 27 2
23 28 5
23 29 1
23 30 4
23 31 5
23 32 5
23 33 5
23 34 1
23 35 1
23 36 1
23 37 3
23 38 4
23 39 2
23 40 1
23 41 2
23 42 4
23 43 5
23 44 5
23 45 3
23 46 4
23 47 3
23 48 3
23 49 4
23 50 2
23 51 5
23 52 2
23 53 4
23 54 1
23 55 4
23 56 2
23 57 1
23 58 3
23 59 2
23 60 1
23 61 2
23 62 4
23 63 5
23 64 2
23 65 4
23 66 2
23 67 3
23 68 4
23 69 3
23 70 3
23 71 1
23 72 2
23 73 1
23 74 1
23 75 3
23 76 3
23 77 5
23 78 1
23 79 2
23 80 4
23 81 4
23 82 2
23 83 5
23 84 3
23 85 4
23 86 4
23 87 3
23 88 5
23 89 1
23 90 2
23 91 2
23 92 5
23 93 4
23 94 5
23 95 2
23 96 2
23 97 2
23 98 1
23 99 4
23 100 5
24 25 5
24 26 1
24 27 5
24 28 1
24 29 5
24 30 5
24 31 4
24 32 3
24 33 4
24 34 5
24 35 3
24 36 3
24 37 1
24 38 4
24 39 1
24 40 1
24 41 2
24 42 1
24 43 5
24 44 4
24 45 2
24 46 4
24 47 4
24 48 3
24 49 3
24 50 4
24 51 4
24 52 4
24 53 4
24 54 1
24 55 2
24 56 5
24 57 2
24 58 5
24 59 2
24 60 4
24 61 1
24 62 3
24 63 4
24 64 3
24 65 4
24 66 2
24 67 5
24 68 1
24 69 3
24 70 2
24 71 2
24 72 1
24 73 2
24 74 4
24 75 4
24 76 4
24 77 2
24 78 5
24 79 3
24 80 2
24 81 3
24 82 4
24 83 1
24 84 2
24 85 2
24 86 1
24 87 4
24 88 3
24 89 2
24 90 1
24 91 3
24 92 1
24 93 2
24 94 4
24 95 4
24 96 3
24 97 5
24 98 5
24 99 2
24 100 4
25 26 5
25 27 3
25 28 2
25 29 4
25 30 3
25 31 4
25 32 2
25 33 2
25 34 1
25 35 1
25 36 4
25 37 2
25 38 4
25 39 4
25 40 1
25 41 5
25 42 2
25 43 2
25 44 3
25 45 3
25 46 1
25 47 1
25 48 5
25 49 5
25 50 4
25 51 4
25 52 2
25 53 4
25 54 2
25 55 3
25 56 1
25 57 1
25 58 1
25 59 1
25 60 3
25 61 2
25 62 3
25 63 1
25 64 1
25 65 1
25 66 1
25 67 3
25 68 2
25 69 3
25 70 5
25 71 2
25 72 4
25 73 1
25 74 4
25 75 3
25 76 4
25 77 4
25 78 5
25 79 1
25 80 4
25 81 4
25 82 5
25 83 1
25 84 4
25 85 1
25 86 2
25 87 3
25 88 4
25 89 5
25 90 5
25 91 1
25 92 3
25 93 4
25 94 2
25 95 2
25 96 4
25 97 3
25 98 3
25 99 3
25 100 2
26 27 2
26 28 4
26 29 1
26 30 2
26 31 1
26 32 3
26 33 4
26 34 1
26 35 2
26 36 5
26 37 3
26 38 2
26 39 1
26 40 1
26 41 4
26 42 2
26 43 4
26 44 1
26 45 3
26 46 2
26 47 2
26 48 5
26 49 4
26 50 2
26 51 3
26 52 4
26 53 5
26 54 2
26 55 4
26 56 1
26 57 5
26 58 5
26 59 4
26 60 3
26 61 1
26 62 2
26 63 2
26 64 3
26 65 5
26 66 3
26 67 2
26 68 1
26 69 5
26 70 1
26 71 1
26 72 5
26 73 3
26 74 1
26 75 5
26 76 3
26 77 1
26 78 2
26 79 4
26 80 3
26 81 5
26 82 3
26 83 1
26 84 4
26 85 5
26 86 3
26 87 2
26 88 3
26 89 5
26 90 4
26 91 5
26 92 5
26 93 3
26 94 2
26 95 5
26 96 2
26 97 3
26 98 2
26 99 3
26 100 3
27 28 2
27 29 1
27 30 3
27 31 5
27 32 3
27 33 3
27 34 5
27 35 3
27 36 4
27 37 2
27 38 4
27 39 2
27 40 2
27 41 3
27 42 3
27 43 4
27 44 1
27 45 2
27 46 1
27 47 2
27 48 5
27 49 1
27 50 2
27 51 5
27 52 2
27 53 3
27 54 1
27 55 5
27 56 5
27 57 3
27 58 5
27 59 1
27 60 4
27 61 1
27 62 2
27 63 2
27 64 4
27 65 3
27 66 4
27 67 2
27 68 3
27 69 2
27 70 2
27 71 2
27 72 1
27 73 3
27 74 5
27 75 2
27 76 1
27 77 3
27 78 2
27 79 3
27 80 1
27 81 5
27 82 5
27 83 4
27 84 1
27 85 1
27 86 1
27 87 5
27 88 4
27 89 1
27 90 4
27 91 5
27 92 1
27 93 5
27 94 1
27 95 3
27 96 3
27 97 2
27 98 4
27 99 3
27 100 3
28 29 2
28 30 1
28 31 4
28 32 4
28 33 2
28 34 2
28 35 1
28 36 5
28 37 2
28 38 4
28 39 2
28 40 5
28 41 5
28 42 4
28 43 5
28 44 2
28 45 1
28 46 1
28 47 1
28 48 4
28 49 5
28 50 5
28 51 5
28 52 3
28 53 4
28 54 3
28 55 1
28 56 3
28 57 2
28 58 4
28 59 4
28 60 4
28 61 1
28 62 5
28 63 4
28 64 2
28 65 1
28 66 4
28 67 5
28 68 5
28 69 5
28 70 3
28 71 1
28 72 3
28 73 4
28 74 5
28 75 4
28 76 2
28 77 4
28 78 1
28 79 2
28 80 1
28 81 2
28 82 2
28 83 3
28 84 3
28 85 5
28 86 2
28 87 1
28 88 3
28 89 2
28 90 2
28 91 2
28 92 4
28 93 2
28 94 4
28 95 5
28 96 3
28 97 4
28 98 5
28 99 4
28 100 3
29 30 5
29 31 1
29 32 2
29 33 3
29 34 4
29 35 2
29 36 2
29 37 5
29 38 4
29 39 5
29 40 2
29 41 1
29 42 5
29 43 1
29 44 4
29 45 5
29 46 2
29 47 3
29 48 3
29 49 1
29 50 2
29 51 5
29 52 4
29 53 4
29 54 5
29 55 2
29 56 3
29 57 5
29 58 2
29 59 1
29 60 3
29 61 4
29 62 1
29 63 1
29 64 4
29 65 4
29 66 1
29 67 4
29 68 4
29 69 5
29 70 5
29 71 5
29 72 1
29 73 4
29 74 3
29 75 4
29 76 2
29 77 3
29 78 4
29 79 4
29 80 5
29 81 2
29 82 3
29 83 2
29 84 3
29 85 3
29 86 3
29 87 2
29 88 2
29 89 2
29 90 5
29 91 3
29 92 3
29 93 4
29 94 3
29 95 4
29 96 1
29 97 2
29 98 1
29 99 3
29 100 5
30 31 2
30 32 4
30 33 1
30 34 3
30 35 4
30 36 2
30 37 1
30 38 5
30 39 1
30 40 3
30 41 2
30 42 3
30 43 3
30 44 5
30 45 5
30 46 5
30 47 1
30 48 2
30 49 2
30 50 4
30 51 1
30 52 5
30 53 2
30 54 2
30 55 3
30 56 1
30 57 2
30 58 4
30 59 3
30 60 4
30 61 1
30 62 4
30 63 1
30 64 2
30 65 2
30 66 5
30 67 2
30 68 5
30 69 5
30 70 2
30 71 4
30 72 5
30 73 5
30 74 5
30 75 2
30 76 5
30 77 4
30 78 3
30 79 5
30 80 2
30 81 3
30 82 3
30 83 3
30 84 3
30 85 4
30 86 5
30 87 2
30 88 2
30 89 2
30 90 4
30 91 1
30 92 2
30 93 4
30 94 1
30 95 5
30 96 3
30 97 2
30 98 5
30 99 5
30 100 3
31 32 2
31 33 2
31 34 4
31 35 3
31 36 4
31 37 1
31 38 2
31 39 4
31 40 3
31 41 2
31 42 1
31 43 2
31 44 4
31 45 4
31 46 2
31 47 3
31 48 1
31 49 2
31 50 2
31 51 4
31 52 3
31 53 1
31 54 4
31 55 1
31 56 4
31 57 1
31 58 5
31 59 3
31 60 4
31 61 3
31 62 4
31 63 4
31 64 4
31 65 1
31 66 5
31 67 5
31 68 4
31 69 1
31 70 5
31 71 2
31 72 3
31 73 2
31 74 2
31 75 2
31 76 1
31 77 1
31 78 3
31 79 2
31 80 3
31 81 4
31 82 1
31 83 3
31 84 2
31 85 1
31 86 1
31 87 3
31 88 5
31 89 3
31 90 1
31 91 1
31 92 1
31 93 5
31 94 1
31 95 2
31 96 5
31 97 5
31 98 1
31 99 4
31 100 4
32 33 2
32 34 3
32 35 2
32 36 1
32 37 2
32 38 2
32 39 5
32 40 2
32 41 5
32 42 2
32 43 2
32 44 3
32 45 5
32 46 4
32 47 3
32 48 2
32 49 4
32 50 2
32 51 5
32 52 1
32 53 1
32 54 1
32 55 5
32 56 3
32 57 1
32 58 3
32 59 1
32 60 5
32 61 2
32 62 4
32 63 2
32 64 1
32 65 2
32 66 1
32 67 4
32 68 3
32 69 1
32 70 1
32 71 3
32 72 3
32 73 5
32 74 5
32 75 1
32 76 2
32 77 1
32 78 2
32 79 4
32 80 2
32 81 1
32 82 5
32 83 4
32 84 3
32 85 3
32 86 4
32 87 4
32 88 1
32 89 3
32 90 5
32 91 1
32 92 2
32 93 1
32 94 2
32 95 1
32 96 2
32 97 4
32 98 1
32 99 4
32 100 4
33 34 3
33 35 1
33 36 3
33 37 5
33 38 5
33 39 5
33 40 1
33 41 4
33 42 3
33 43 4
33 44 4
33 45 1
33 46 1
33 47 1
33 48 4
33 49 5
33 50 2
33 51 5
33 52 1
33 53 5
33 54 5
33 55 4
33 56 2
33 57 5
33 58 2
33 59 3
33 60 5
33 61 4
33 62 2
33 63 5
33 64 5
33 65 1
33 66 5
33 67 1
33 68 4
33 69 4
33 70 4
33 71 3
33 72 5
33 73 1
33 74 2
33 75 3
33 76 1
33 77 5
33 78 2
33 79 2
33 80 2
33 81 3
33 82 4
33 83 2
33 84 5
33 85 1
33 86 4
33 87 5
33 88 5
33 89 5
33 90 3
33 91 3
33 92 5
33 93 1
33 94 5
33 95 5
33 96 2
33 97 3
33 98 4
33 99 2
33 100 1
34 35 2
34 36 5
34 37 4
34 38 4
34 39 2
34 40 2
34 41 4
34 42 5
34 43 4
34 44 2
34 45 5
34 46 3
34 47 1
34 48 4
34 49 5
34 50 2
34 51 5
34 52 1
34 53 3
34 54 3
34 55 4
34 56 3
34 57 1
34 58 3
34 59 4
34 60 3
34 61 5
34 62 1
34 63 1
34 64 3
34 65 1
34 66 3
34 67 5
34 68 4
34 69 4
34 70 4
34 71 3
34 72 3
34 73 5
34 74 1
34 75 2
34 76 1
34 77 5
34 78 2
34 79 3
34 80 2
34 81 2
34 82 5
34 83 4
34 84 1
34 85 5
34 86 4
34 87 2
34 88 3
34 89 3
34 90 2
34 91 5
34 92 5
34 93 3
34 94 2
34 95 5
34 96 1
34 97 3
34 98 1
34 99 4
34 100 3
35 36 2
35 37 3
35 38 4
35 39 4
35 40 2
35 41 3
35 42 3
35 43 4
35 44 2
35 45 3
35 46 3
35 47 2
35 48 4
35 49 3
35 50 1
35 51 4
35 52 1
35 53 4
35 54 1
35 55 1
35 56 1
35 57 3
35 58 5
35 59 2
35 60 2
35 61 4
35 62 4
35 63 2
35 64 2
35 65 5
35 66 4
35 67 3
35 68 4
35 69 3
35 70 5
35 71 5
35 72 3
35 73 4
35 74 2
35 75 5
35 76 3
35 77 1
35 78 2
35 79 5
35 80 2
35 81 1
35 82 2
35 83 1
35 84 4
35 85 3
35 86 3
35 87 2
35 88 4
35 89 4
35 90 2
35 91 1
35 92 3
35 93 1
35 94 3
35 95 5
35 96 3
35 97 1
35 98 3
35 99 2
35 100 2
36 37 1
36 38 3
36 39 4
36 40 2
36 41 2
36 42 1
36 43 1
36 44 5
36 45 1
36 46 2
36 47 4
36 48 2
36 49 5
36 50 3
36 51 3
36 52 1
36 53 5
36 54 4
36 55 5
36 56 5
36 57 3
36 58 2
36 59 4
36 60 2
36 61 5
36 62 4
36 63 2
36 64 4
36 65 2
36 66 2
36 67 5
36 68 3
36 69 2
36 70 5
36 71 4
36 72 2
36 73 4
36 74 2
36 75 4
36 76 4
36 77 3
36 78 1
36 79 5
36 80 3
36 81 5
36 82 3
36 83 1
36 84 2
36 85 5
36 86 5
36 87 1
36 88 4
36 89 3
36 90 3
36 91 1
36 92 2
36 93 2
36 94 1
36 95 5
36 96 4
36 97 2
36 98 5
36 99 2
36 100 5
37 38 5
37 39 5
37 40 4
37 41 3
37 42 1
37 43 1
37 44 4
37 45 2
37 46 5
37 47 4
37 48 4
37 49 3
37 50 3
37 51 4
37 52 2
37 53 3
37 54 3
37 55 5
37 56 4
37 57 4
37 58 4
37 59 3
37 60 2
37 61 2
37 62 1
37 63 1
37 64 5
37 65 4
37 66 4
37 67 3
37 68 5
37 69 4
37 70 5
37 71 4
37 72 4
37 73 3
37 74 3
37 75 3
37 76 3
37 77 2
37 78 3
37 79 3
37 80 1
37 81 3
37 82 5
37 83 4
37 84 3
37 85 1
37 86 4
37 87 2
37 88 4
37 89 4
37 90 3
37 91 3
37 92 4
37 93 1
37 94 2
37 95 4
37 96 5
37 97 3
37 98 4
37 99 2
37 100 1
38 39 2
38 40 1
38 41 5
38 42 4
38 43 5
38 44 3
38 45 1
38 46 3
38 47 2
38 48 2
38 49 4
38 50 2
38 51 1
38 52 4
38 53 3
38 54 4
38 55 4
38 56 3
38 57 2
38 58 5
38 59 4
38 60 4
38 61 2
38 62 3
38 63 1
38 64 5
38 65 5
38 66 2
38 67 5
38 68 4
38 69 3
38 70 2
38 71 3
38 72 1
38 73 2
38 74 4
38 75 2
38 76 4
38 77 4
38 78 2
38 79 4
38 80 2
38 81 2
38 82 2
38 83 1
38 84 2
38 85 4
38 86 1
38 87 3
38 88 1
38 89 5
38 90 5
38 91 5
38 92 3
38 93 4
38 94 4
38 95 1
38 96 5
38 97 5
38 98 2
38 99 1
38 100 2
39 40 3
39 41 2
39 42 1
39 43 4
39 44 1
39 45 2
39 46 1
39 47 4
39 48 2
39 49 4
39 50 2
39 51 2
39 52 2
39 53 4
39 54 3
39 55 4
39 56 4
39 57 4
39 58 5
39 59 5
39 60 4
39 61 5
39 62 1
39 63 4
39 64 2
39 65 3
39 66 3
39 67 1
39 68 1
39 69 4
39 70 5
39 71 5
39 72 5
39 73 4
39 74 4
39 75 1
39 76 2
39 77 5
39 78 1
39 79 3
39 80 5
39 81 3
39 82 4
39 83 1
39 84 5
39 85 2
39 86 4
39 87 1
39 88 5
39 89 4
39 90 2
39 91 1
39 92 1
39 93 2
39 94 3
39 95 3
39 96 5
39 97 2
39 98 4
39 99 4
39 100 1
40 41 5
40 42 3
40 43 3
40 44 2
40 45 3
40 46 5
40 47 2
40 48 3
40 49 1
40 50 4
40 51 5
40 52 2
40 53 4
40 54 3
40 55 1
40 56 3
40 57 3
40 58 3
40 59 3
40 60 1
40 61 1
40 62 5
40 63 3
40 64 3
40 65 4
40 66 3
40 67 1
40 68 1
40 69 4
40 70 1
40 71 4
40 72 3
40 73 2
40 74 2
40 75 1
40 76 2
40 77 3
40 78 5
40 79 2
40 80 4
40 81 3
40 82 2
40 83 4
40 84 1
40 85 2
40 86 5
40 87 5
40 88 3
40 89 3
40 90 1
40 91 1
40 92 5
40 93 2
40 94 3
40 95 5
40 96 4
40 97 1
40 98 1
40 99 2
40 100 3
41 42 1
41 43 2
41 44 1
41 45 5
41 46 5
41 47 5
41 48 2
41 49 1
41 50 5
41 51 2
41 52 5
41 53 5
41 54 5
41 55 3
41 56 1
41 57 3
41 58 3
41 59 3
41 60 4
41 61 1
41 62 1
41 63 5
41 64 4
41 65 1
41 66 4
41 67 4
41 68 3
41 69 1
41 70 4
41 71 3
41 72 1
41 73 1
41 74 5
41 75 5
41 76 4
41 77 4
41 78 5
41 79 2
41 80 1
41 81 1
41 82 4
41 83 2
41 84 1
41 85 3
41 86 3
41 87 2
41 88 1
41 89 4
41 90 2
41 91 4
41 92 2
41 93 5
41 94 5
41 95 5
41 96 2
41 97 1
41 98 5
41 99 3
41 100 2
42 43 2
42 44 3
42 45 3
42 46 5
42 47 1
42 48 5
42 49 5
42 50 2
42 51 4
42 52 4
42 53 1
42 54 4
42 55 1
42 56 2
42 57 3
42 58 5
42 59 1
42 60 5
42 61 4
42 62 4
42 63 3
42 64 5
42 65 5
42 66 2
42 67 5
42 68 1
42 69 3
42 70 4
42 71 1
42 72 1
42 73 5
42 74 2
42 75 4
42 76 3
42 77 3
42 78 1
42 79 3
42 80 3
42 81 2
42 82 3
42 83 4
42 84 4
42 85 2
42 86 4
42 87 1
42 88 3
42 89 2
42 90 2
42 91 2
42 92 2
42 93 5
42 94 4
42 95 3
42 96 5
42 97 3
42 98 4
42 99 1
42 100 5
43 44 5
43 45 2
43 46 1
43 47 2
43 48 2
43 49 2
43 50 3
43 51 5
43 52 2
43 53 1
43 54 1
43 55 5
43 56 2
43 57 2
43 58 5
43 59 5
43 60 2
43 61 2
43 62 2
43 63 4
43 64 2
43 65 5
43 66 2
43 67 1
43 68 2
43 69 4
43 70 1
43 71 4
43 72 5
43 73 3
43 74 4
43 75 2
43 76 3
43 77 2
43 78 1
43 79 1
43 80 2
43 81 5
43 82 4
43 83 2
43 84 2
43 85 1
43 86 2
43 87 4
43 88 2
43 89 3
43 90 5
43 91 4
43 92 1
43 93 1
43 94 3
43 95 2
43 96 4
43 97 5
43 98 5
43 99 4
43 100 2
44 45 1
44 46 4
44 47 1
44 48 1
44 49 1
44 50 5
44 51 2
44 52 1
44 53 5
44 54 5
44 55 5
44 56 4
44 57 1
44 58 4
44 59 4
44 60 5
44 61 3
44 62 5
44 63 2
44 64 2
44 65 2
44 66 5
44 67 3
44 68 3
44 69 5
44 70 2
44 71 5
44 72 1
44 73 5
44 74 5
44 75 1
44 76 3
44 77 3
44 78 2
44 79 2
44 80 5
44 81 4
44 82 1
44 83 2
44 84 5
44 85 4
44 86 1
44 87 3
44 88 4
44 89 3
44 90 2
44 91 4
44 92 4
44 93 4
44 94 1
44 95 1
44 96 4
44 97 3
44 98 4
44 99 1
44 100 2
45 46 5
45 47 1
45 48 3
45 49 2
45 50 3
45 51 2
45 52 4
45 53 4
45 54 1
45 55 1
45 56 4
45 57 2
45 58 3
45 59 2
45 60 5
45 61 1
45 62 5
45 63 2
45 64 3
45 65 4
45 66 4
45 67 4
45 68 5
45 69 3
45 70 1
45 71 1
45 72 1
45 73 3
45 74 5
45 75 4
45 76 4
45 77 5
45 78 5
45 79 3
45 80 4
45 81 5
45 82 2
45 83 2
45 84 1
45 85 5
45 86 1
45 87 5
45 88 2
45 89 3
45 90 1
45 91 1
45 92 2
45 93 2
45 94 5
45 95 2
45 96 5
45 97 1
45 98 4
45 99 1
45 100 1
46 47 1
46 48 3
46 49 5
46 50 2
46 51 4
46 52 1
46 53 5
46 54 4
46 55 3
46 56 2
46 57 2
46 58 3
46 59 5
46 60 4
46 61 5
46 62 5
46 63 1
46 64 1
46 65 4
46 66 4
46 67 4
46 68 1
46 69 1
46 70 5
46 71 3
46 72 5
46 73 4
46 74 1
46 75 5
46 76 5
46 77 1
46 78 2
46 79 3
46 80 3
46 81 2
46 82 3
46 83 4
46 84 2
46 85 3
46 86 5
46 87 4
46 88 5
46 89 4
46 90 5
46 91 5
46 92 5
46 93 4
46 94 3
46 95 3
46 96 2
46 97 1
46 98 1
46 99 1
46 100 1
47 48 4
47 49 4
47 50 5
47 51 2
47 52 2
47 53 4
47 54 3
47 55 2
47 56 5
47 57 4
47 58 5
47 59 5
47 60 1
47 61 4
47 62 2
47 63 4
47 64 1
47 65 3
47 66 4
47 67 2
47 68 1
47 69 5
47 70 5
47 71 3
47 72 1
47 73 2
47 74 4
47 75 1
47 76 3
47 77 1
47 78 4
47 79 1
47 80 5
47 81 3
47 82 3
47 83 4
47 84 4
47 85 3
47 86 5
47 87 1
47 88 2
47 89 4
47 90 2
47 91 4
47 92 2
47 93 4
47 94 2
47 95 1
47 96 5
47 97 2
47 98 2
47 99 2
47 100 5
48 49 5
48 50 2
48 51 2
48 52 3
48 53 2
48 54 3
48 55 5
48 56 3
48 57 4
48 58 3
48 59 1
48 60 2
48 61 5
48 62 5
48 63 2
48 64 3
48 65 2
48 66 1
48 67 5
48 68 2
48 69 1
48 70 2
48 71 4
48 72 4
48 73 2
48 74 3
48 75 4
48 76 3
48 77 5
48 78 4
48 79 3
48 80 2
48 81 2
48 82 2
48 83 1
48 84 3
48 85 3
48 86 4
48 87 4
48 88 1
48 89 2
48 90 1
48 91 2
48 92 4
48 93 4
48 94 2
48 95 5
48 96 2
48 97 4
48 98 1
48 99 1
48 100 5
49 50 1
49 51 4
49 52 2
49 53 4
49 54 1
49 55 2
49 56 3
49 57 2
49 58 1
49 59 1
49 60 1
49 61 1
49 62 3
49 63 1
49 64 3
49 65 5
49 66 4
49 67 1
49 68 3
49 69 1
49 70 2
49 71 2
49 72 1
49 73 3
49 74 2
49 75 5
49 76 5
49 77 1
49 78 3
49 79 5
49 80 3
49 81 3
49 82 2
49 83 5
49 84 5
49 85 4
49 86 3
49 87 1
49 88 4
49 89 4
49 90 3
49 91 3
49 92 2
49 93 2
49 94 3
49 95 4
49 96 2
49 97 1
49 98 5
49 99 3
49 100 2
50 51 5
50 52 2
50 53 3
50 54 3
50 55 1
50 56 4
50 57 3
50 58 4
50 59 3
50 60 5
50 61 3
50 62 5
50 63 5
50 64 3
50 65 2
50 66 3
50 67 1
50 68 3
50 69 4
50 70 2
50 71 1
50 72 3
50 73 5
50 74 4
50 75 1
50 76 1
50 77 4
50 78 4
50 79 2
50 80 1
50 81 4
50 82 5
50 83 1
50 84 3
50 85 2
50 86 5
50 87 4
50 88 1
50 89 2
50 90 2
50 91 5
50 92 2
50 93 2
50 94 4
50 95 4
50 96 3
50 97 5
50 98 3
50 99 1
50 100 3
51 52 5
51 53 3
51 54 3
51 55 1
51 56 4
51 57 1
51 58 4
51 59 3
51 60 1
51 61 2
51 62 3
51 63 4
51 64 2
51 65 1
51 66 1
51 67 2
51 68 2
51 69 1
51 70 4
51 71 3
51 72 3
51 73 1
51 74 3
51 75 4
51 76 4
51 77 4
51 78 1
51 79 2
51 80 5
51 81 1
51 82 2
51 83 5
51 84 3
51 85 3
51 86 3
51 87 4
51 88 5
51 89 3
51 90 2
51 91 2
51 92 5
51 93 3
51 94 3
51 95 1
51 96 4
51 97 2
51 98 3
51 99 1
51 100 1
52 53 3
52 54 1
52 55 4
52 56 1
52 57 2
52 58 4
52 59 3
52 60 1
52 61 1
52 62 2
52 63 3
52 64 3
52 65 4
52 66 2
52 67 5
52 68 4
52 69 3
52 70 1
52 71 5
52 72 3
52 73 1
52 74 1
52 75 5
52 76 5
52 77 2
52 78 2
52 79 3
52 80 5
52 81 4
52 82 3
52 83 4
52 84 4
52 85 3
52 86 1
52 87 5
52 88 1
52 89 3
52 90 2
52 91 3
52 92 3
52 93 3
52 94 5
52 95 2
52 96 1
52 97 5
52 98 1
52 99 4
52 100 2
53 54 3
53 55 2
53 56 4
53 57 5
53 58 2
53 59 2
53 60 3
53 61 3
53 62 2
53 63 2
53 64 4
53 65 4
53 66 2
53 67 3
53 68 4
53 69 1
53 70 3
53 71 4
53 72 5
53 73 1
53 74 4
53 75 5
53 76 2
53 77 1
53 78 3
53 79 3
53 80 3
53 81 3
53 82 3
53 83 4
53 84 1
53 85 4
53 86 5
53 87 3
53 88 1
53 89 5
53 90 1
53 91 5
53 92 2
53 93 2
53 94 1
53 95 5
53 96 1
53 97 3
53 98 1
53 99 5
53 100 5
54 55 2
54 56 4
54 57 1
54 58 3
54 59 3
54 60 4
54 61 4
54 62 1
54 63 3
54 64 3
54 65 2
54 66 5
54 67 5
54 68 2
54 69 3
54 70 1
54 71 4
54 72 4
54 73 4
54 74 4
54 75 1
54 76 4
54 77 2
54 78 4
54 79 4
54 80 5
54 81 4
54 82 3
54 83 1
54 84 1
54 85 4
54 86 3
54 87 2
54 88 5
54 89 3
54 90 2
54 91 2
54 92 2
54 93 5
54 94 2
54 95 2
54 96 4
54 97 4
54 98 4
54 99 1
54 100 2
55 56 2
55 57 5
55 58 1
55 59 1
55 60 1
55 61 5
55 62 4
55 63 2
55 64 1
55 65 5
55 66 3
55 67 5
55 68 3
55 69 5
55 70 2
55 71 2
55 72 4
55 73 2
55 74 2
55 75 4
55 76 5
55 77 3
55 78 1
55 79 3
55 80 1
55 81 3
55 82 3
55 83 4
55 84 1
55 85 1
55 86 2
55 87 4
55 88 5
55 89 3
55 90 4
55 91 3
55 92 3
55 93 2
55 94 3
55 95 3
55 96 5
55 97 2
55 98 2
55 99 1
55 100 4
56 57 1
56 58 4
56 59 2
56 60 2
56 61 4
56 62 4
56 63 4
56 64 2
56 65 5
56 66 4
56 67 2
56 68 5
56 69 4
56 70 3
56 71 4
56 72 5
56 73 2
56 74 2
56 75 3
56 76 3
56 77 4
56 78 5
56 79 3
56 80 3
56 81 3
56 82 4
56 83 3
56 84 2
56 85 5
56 86 1
56 87 3
56 88 2
56 89 3
56 90 1
56 91 5
56 92 2
56 93 1
56 94 1
56 95 2
56 96 5
56 97 1
56 98 2
56 99 3
56 100 4
57 58 3
57 59 1
57 60 1
57 61 5
57 62 4
57 63 2
57 64 5
57 65 3
57 66 3
57 67 5
57 68 2
57 69 4
57 70 4
57 71 2
57 72 3
57 73 4
57 74 5
57 75 4
57 76 3
57 77 2
57 78 4
57 79 2
57 80 3
57 81 5
57 82 4
57 83 2
57 84 2
57 85 3
57 86 4
57 87 3
57 88 4
57 89 3
57 90 2
57 91 1
57 92 1
57 93 1
57 94 3
57 95 4
57 96 2
57 97 2
57 98 1
57 99 2
57 100 2
58 59 4
58 60 3
58 61 5
58 62 3
58 63 1
58 64 5
58 65 2
58 66 3
58 67 4
58 68 2
58 69 2
58 70 2
58 71 4
58 72 3
58 73 1
58 74 1
58 75 3
58 76 1
58 77 2
58 78 4
58 79 5
58 80 3
58 81 2
58 82 5
58 83 5
58 84 2
58 85 3
58 86 5
58 87 3
58 88 3
58 89 3
58 90 3
58 91 4
58 92 5
58 93 3
58 94 4
58 95 1
58 96 5
58 97 3
58 98 4
58 99 3
58 100 5
59 60 1
59 61 4
59 62 5
59 63 1
59 64 1
59 65 3
59 66 4
59 67 4
59 68 1
59 69 1
59 70 5
59 71 2
59 72 4
59 73 5
59 74 2
59 75 3
59 76 3
59 77 2
59 78 2
59 79 4
59 80 4
59 81 1
59 82 5
59 83 4
59 84 1
59 85 4
59 86 1
59 87 4
59 88 2
59 89 5
59 90 2
59 91 5
59 92 4
59 93 1
59 94 2
59 95 5
59 96 4
59 97 4
59 98 3
59 99 3
59 100 4
60 61 4
60 62 4
60 63 3
60 64 1
60 65 3
60 66 3
60 67 3
60 68 2
60 69 4
60 70 5
60 71 1
60 72 5
60 73 4
60 74 2
60 75 5
60 76 3
60 77 1
60 78 4
60 79 4
60 80 5
60 81 2
60 82 5
60 83 3
60 84 4
60 85 2
60 86 1
60 87 4
60 88 2
60 89 2
60 90 5
60 91 5
60 92 2
60 93 4
60 94 4
60 95 4
60 96 5
60 97 1
60 98 3
60 99 2
60 100 3
61 62 3
61 63 5
61 64 1
61 65 3
61 66 4
61 67 4
61 68 2
61 69 2
61 70 4
61 71 3
61 72 4
61 73 4
61 74 2
61 75 3
61 76 3
61 77 3
61 78 1
61 79 3
61 80 3
61 81 2
61 82 3
61 83 2
61 84 2
61 85 1
61 86 1
61 87 1
61 88 4
61 89 5
61 90 3
61 91 4
61 92 4
61 93 2
61 94 1
61 95 4
61 96 2
61 97 5
61 98 4
61 99 4
61 100 1
62 63 3
62 64 5
62 65 2
62 66 2
62 67 2
62 68 1
62 69 1
62 70 5
62 71 4
62 72 5
62 73 1
62 74 2
62 75 2
62 76 2
62 77 1
62 78 5
62 79 1
62 80 5
62 81 3
62 82 4
62 83 1
62 84 5
62 85 2
62 86 2
62 87 1
62 88 3
62 89 4
62 90 3
62 91 1
62 92 2
62 93 3
62 94 5
62 95 3
62 96 5
62 97 5
62 98 1
62 99 3
62 100 1
63 64 3
63 65 5
63 66 3
63 67 4
63 68 2
63 69 1
63 70 2
63 71 2
63 72 1
63 73 1
63 74 3
63 75 2
63 76 2
63 77 2
63 78 5
63 79 5
63 80 4
63 81 4
63 82 3
63 83 4
63 84 1
63 85 3
63 86 5
63 87 4
63 88 3
63 89 2
63 90 3
63 91 5
63 92 3
63 93 5
63 94 2
63 95 3
63 96 5
63 97 5
63 98 5
63 99 2
63 100 1
64 65 2
64 66 1
64 67 2
64 68 2
64 69 4
64 70 5
64 71 3
64 72 1
64 73 2
64 74 4
64 75 2
64 76 3
64 77 1
64 78 4
64 79 3
64 80 3
64 81 5
64 82 2
64 83 5
64 84 4
64 85 2
64 86 3
64 87 4
64 88 5
64 89 3
64 90 3
64 91 1
64 92 3
64 93 4
64 94 1
64 95 1
64 96 3
64 97 2
64 98 3
64 99 1
64 100 5
65 66 4
65 67 5
65 68 4
65 69 4
65 70 5
65 71 3
65 72 1
65 73 1
65 74 4
65 75 1
65 76 4
65 77 1
65 78 1
65 79 1
65 80 4
65 81 2
65 82 5
65 83 3
65 84 5
65 85 4
65 86 5
65 87 3
65 88 4
65 89 5
65 90 5
65 91 3
65 92 3
65 93 4
65 94 3
65 95 5
65 96 3
65 97 1
65 98 3
65 99 2
65 100 4
66 67 1
66 68 2
66 69 2
66 70 5
66 71 2
66 72 3
66 73 5
66 74 4
66 75 3
66 76 1
66 77 5
66 78 2
66 79 1
66 80 4
66 81 4
66 82 3
66 83 2
66 84 5
66 85 4
66 86 4
66 87 5
66 88 5
66 89 3
66 90 4
66 91 1
66 92 1
66 93 1
66 94 3
66 95 4
66 96 4
66 97 2
66 98 2
66 99 2
66 100 5
67 68 5
67 69 3
67 70 4
67 71 3
67 72 1
67 73 4
67 74 3
67 75 5
67 76 5
67 77 2
67 78 2
67 79 2
67 80 3
67 81 3
67 82 2
67 83 5
67 84 5
67 85 4
67 86 3
67 87 1
67 88 1
67 89 3
67 90 4
67 91 3
67 92 2
67 93 1
67 94 4
67 95 4
67 96 4
67 97 3
67 98 1
67 99 2
67 100 3
68 69 2
68 70 2
68 71 5
68 72 5
68 73 5
68 74 4
68 75 4
68 76 3
68 77 1
68 78 4
68 79 3
68 80 2
68 81 1
68 82 3
68 83 3
68 84 3
68 85 4
68 86 4
68 87 1
68 88 4
68 89 3
68 90 5
68 91 1
68 92 3
68 93 3
68 94 5
68 95 3
68 96 2
68 97 3
68 98 1
68 99 3
68 100 2
69 70 5
69 71 5
69 72 5
69 73 3
69 74 5
69 75 4
69 76 1
69 77 4
69 78 1
69 79 1
69 80 4
69 81 5
69 82 2
69 83 4
69 84 4
69 85 4
69 86 4
69 87 4
69 88 4
69 89 3
69 90 4
69 91 1
69 92 1
69 93 3
69 94 5
69 95 5
69 96 4
69 97 5
69 98 4
69 99 5
69 100 4
70 71 3
70 72 5
70 73 1
70 74 1
70 75 2
70 76 1
70 77 3
70 78 3
70 79 3
70 80 2
70 81 4
70 82 1
70 83 3
70 84 1
70 85 2
70 86 5
70 87 4
70 88 5
70 89 5
70 90 3
70 91 4
70 92 4
70 93 1
70 94 4
70 95 3
70 96 2
70 97 1
70 98 3
70 99 3
70 100 4
71 72 3
71 73 4
71 74 3
71 75 1
71 76 1
71 77 2
71 78 5
71 79 4
71 80 5
71 81 2
71 82 1
71 83 1
71 84 1
71 85 2
71 86 5
71 87 2
71 88 4
71 89 3
71 90 1
71 91 4
71 92 4
71 93 5
71 94 2
71 95 4
71 96 2
71 97 2
71 98 5
71 99 4
71 100 3
72 73 5
72 74 4
72 75 3
72 76 5
72 77 2
72 78 5
72 79 4
72 80 3
72 81 3
72 82 5
72 83 3
72 84 2
72 85 3
72 86 1
72 87 4
72 88 3
72 89 1
72 90 5
72 91 3
72 92 4
72 93 3
72 94 1
72 95 4
72 96 2
72 97 2
72 98 4
72 99 1
72 100 3
73 74 1
73 75 5
73 76 4
73 77 1
73 78 1
73 79 2
73 80 3
73 81 4
73 82 3
73 83 3
73 84 2
73 85 5
73 86 5
73 87 3
73 88 4
73 89 1
73 90 5
73 91 2
73 92 3
73 93 2
73 94 5
73 95 5
73 96 5
73 97 1
73 98 3
73 99 4
73 100 5
74 75 1
74 76 1
74 77 5
74 78 4
74 79 2
74 80 1
74 81 2
74 82 2
74 83 5
74 84 3
74 85 3
74 86 4
74 87 1
74 88 1
74 89 1
74 90 2
74 91 5
74 92 3
74 93 3
74 94 5
74 95 1
74 96 3
74 97 3
74 98 1
74 99 4
74 100 4
75 76 4
75 77 5
75 78 2
75 79 1
75 80 2
75 81 4
75 82 1
75 83 3
75 84 4
75 85 1
75 86 2
75 87 1
75 88 5
75 89 4
75 90 5
75 91 1
75 92 2
75 93 1
75 94 5
75 95 3
75 96 4
75 97 3
75 98 3
75 99 3
75 100 2
76 77 2
76 78 3
76 79 5
76 80 3
76 81 4
76 82 2
76 83 5
76 84 4
76 85 1
76 86 5
76 87 2
76 88 4
76 89 4
76 90 1
76 91 3
76 92 2
76 93 4
76 94 4
76 95 5
76 96 4
76 97 1
76 98 3
76 99 3
76 100 4
77 78 2
77 79 1
77 80 1
77 81 1
77 82 2
77 83 2
77 84 3
77 85 2
77 86 2
77 87 4
77 88 1
77 89 5
77 90 3
77 91 5
77 92 5
77 93 5
77 94 3
77 95 3
77 96 5
77 97 2
77 98 4
77 99 5
77 100 2
78 79 4
78 80 1
78 81 5
78 82 5
78 83 2
78 84 5
78 85 1
78 86 1
78 87 1
78 88 4
78 89 3
78 90 2
78 91 2
78 92 4
78 93 4
78 94 3
78 95 4
78 96 3
78 97 3
78 98 3
78 99 2
78 100 4
79 80 1
79 81 3
79 82 1
79 83 4
79 84 4
79 85 3
79 86 3
79 87 1
79 88 5
79 89 1
79 90 5
79 91 1
79 92 4
79 93 4
79 94 1
79 95 4
79 96 2
79 97 3
79 98 5
79 99 4
79 100 5
80 81 2
80 82 4
80 83 4
80 84 2
80 85 2
80 86 3
80 87 4
80 88 2
80 89 2
80 90 3
80 91 2
80 92 2
80 93 5
80 94 4
80 95 1
80 96 5
80 97 1
80 98 3
80 99 2
80 100 5
81 82 2
81 83 3
81 84 4
81 85 5
81 86 3
81 87 1
81 88 4
81 89 2
81 90 5
81 91 1
81 92 3
81 93 1
81 94 2
81 95 2
81 96 2
81 97 4
81 98 3
81 99 1
81 100 5
82 83 1
82 84 2
82 85 1
82 86 1
82 87 5
82 88 2
82 89 4
82 90 4
82 91 4
82 92 1
82 93 3
82 94 1
82 95 2
82 96 3
82 97 3
82 98 2
82 99 5
82 100 1
83 84 3
83 85 4
83 86 2
83 87 1
83 88 5
83 89 4
83 90 1
83 91 5
83 92 1
83 93 3
83 94 2
83 95 2
83 96 5
83 97 1
83 98 3
83 99 5
83 100 1
84 85 3
84 86 3
84 87 3
84 88 1
84 89 2
84 90 2
84 91 1
84 92 3
84 93 2
84 94 5
84 95 1
84 96 4
84 97 1
84 98 4
84 99 1
84 100 1
85 86 4
85 87 3
85 88 3
85 89 1
85 90 2
85 91 3
85 92 5
85 93 1
85 94 3
85 95 1
85 96 1
85 97 4
85 98 2
85 99 4
85 100 3
86 87 2
86 88 5
86 89 4
86 90 3
86 91 3
86 92 3
86 93 4
86 94 3
86 95 1
86 96 5
86 97 3
86 98 2
86 99 5
86 100 5
87 88 1
87 89 1
87 90 3
87 91 1
87 92 1
87 93 3
87 94 3
87 95 2
87 96 5
87 97 1
87 98 4
87 99 3
87 100 1
88 89 1
88 90 3
88 91 5
88 92 3
88 93 3
88 94 3
88 95 1
88 96 4
88 97 4
88 98 1
88 99 1
88 100 2
89 90 2
89 91 1
89 92 2
89 93 5
89 94 3
89 95 5
89 96 2
89 97 2
89 98 4
89 99 3
89 100 4
90 91 2
90 92 5
90 93 1
90 94 2
90 95 3
90 96 5
90 97 4
90 98 1
90 99 1
90 100 2
91 92 3
91 93 1
91 94 5
91 95 1
91 96 2
91 97 5
91 98 1
91 99 4
91 100 3
92 93 5
92 94 4
92 95 1
92 96 4
92 97 1
92 98 1
92 99 5
92 100 2
93 94 5
93 95 3
93 96 5
93 97 5
93 98 4
93 99 2
93 100 4
94 95 4
94 96 3
94 97 5
94 98 3
94 99 1
94 100 3
95 96 1
95 97 1
95 98 3
95 99 5
95 100 5
96 97 1
96 98 1
96 99 4
96 100 5
97 98 3
97 99 5
97 100 4
98 99 1
98 100 3
99 100 4
